src/problems/cvrp/data/train_data/train_case_16.vrp
NAME : case_15
TYPE : CVRP
DIMENSION : 8
EDGE_WEIGHT_TYPE : EUC_2D
CAPACITY : 25
NODE_COORD_SECTION
1 31 52
2 63 23
3 53 43
4 15 60
5 15 77
6 55 5
7 20 50
8 50 35
DEMAND_SECTION
1 0
2 19
3 20
4 16
5 23
6 11
7 19
8 15
DEPOT_SECTION
1
-1
EOF
VEHICLE : 10
