src/problems/mkp/data/train_data/train_case_16.mkp
 5 5
 702 304 2115 3494 16
 23 4 96 161 1
 16 5 150 262 1
 71 2 47 112 4
 69 6 62 176 3
 66 11 74 212 3
 222 265 160 231 517
