src/problems/tsp/data/train_data/train_case_16.tsp
NAME : case_6
TYPE : TSP
DIMENSION : 6
EDGE_WEIGHT_TYPE : EXPLICIT
EDGE_WEIGHT_FORMAT : LOWER_DIAG_ROW
NODE_COORD_TYPE : NO_COORDS
DISPLAY_DATA_TYPE: TWOD_DISPLAY
EDGE_WEIGHT_SECTION
0 
15 0 
17 2 0 
20 5 4 0 
23 13 12 9 0 
23 13 12 10 2 0 
EOF
